(set-logic HORN)
(declare-datatypes ((Nat_0 0)) (((Z_0 ) (S_0 (unS_0 Nat_0)))))
(declare-fun diseqNat_0 (Nat_0 Nat_0) Bool)
(declare-fun unS_1 (Nat_0 Nat_0) Bool)
(declare-fun isZ_0 (Nat_0) Bool)
(declare-fun isS_0 (Nat_0) Bool)
(assert (forall ((x_191 Nat_0) (x_190 Nat_0))
	(=> (= x_191 (S_0 x_190))
	    (unS_1 x_190 x_191))))
(assert (isZ_0 Z_0))
(assert (forall ((x_192 Nat_0))
	(isS_0 (S_0 x_192))))
(assert (forall ((x_193 Nat_0))
	(diseqNat_0 Z_0 (S_0 x_193))))
(assert (forall ((x_194 Nat_0))
	(diseqNat_0 (S_0 x_194) Z_0)))
(assert (forall ((x_195 Nat_0) (x_196 Nat_0))
	(=> (diseqNat_0 x_195 x_196)
	    (diseqNat_0 (S_0 x_195) (S_0 x_196)))))
(declare-fun add_0 (Nat_0 Nat_0 Nat_0) Bool)
(declare-fun minus_0 (Nat_0 Nat_0 Nat_0) Bool)
(declare-fun le_0 (Nat_0 Nat_0) Bool)
(declare-fun ge_0 (Nat_0 Nat_0) Bool)
(declare-fun lt_0 (Nat_0 Nat_0) Bool)
(declare-fun gt_0 (Nat_0 Nat_0) Bool)
(declare-fun mult_0 (Nat_0 Nat_0 Nat_0) Bool)
(declare-fun div_0 (Nat_0 Nat_0 Nat_0) Bool)
(declare-fun mod_0 (Nat_0 Nat_0 Nat_0) Bool)
(assert (forall ((y_0 Nat_0))
	(add_0 y_0 Z_0 y_0)))
(assert (forall ((x_178 Nat_0) (y_0 Nat_0) (r_0 Nat_0))
	(=> (add_0 r_0 x_178 y_0)
	    (add_0 (S_0 r_0) (S_0 x_178) y_0))))
(assert (forall ((y_0 Nat_0))
	(minus_0 Z_0 Z_0 y_0)))
(assert (forall ((x_178 Nat_0) (y_0 Nat_0) (r_0 Nat_0))
	(=> (minus_0 r_0 x_178 y_0)
	    (minus_0 (S_0 r_0) (S_0 x_178) y_0))))
(assert (forall ((y_0 Nat_0))
	(le_0 Z_0 y_0)))
(assert (forall ((x_178 Nat_0) (y_0 Nat_0))
	(=> (le_0 x_178 y_0)
	    (le_0 (S_0 x_178) (S_0 y_0)))))
(assert (forall ((y_0 Nat_0))
	(ge_0 y_0 Z_0)))
(assert (forall ((x_178 Nat_0) (y_0 Nat_0))
	(=> (ge_0 x_178 y_0)
	    (ge_0 (S_0 x_178) (S_0 y_0)))))
(assert (forall ((y_0 Nat_0))
	(lt_0 Z_0 (S_0 y_0))))
(assert (forall ((x_178 Nat_0) (y_0 Nat_0))
	(=> (lt_0 x_178 y_0)
	    (lt_0 (S_0 x_178) (S_0 y_0)))))
(assert (forall ((y_0 Nat_0))
	(gt_0 (S_0 y_0) Z_0)))
(assert (forall ((x_178 Nat_0) (y_0 Nat_0))
	(=> (gt_0 x_178 y_0)
	    (gt_0 (S_0 x_178) (S_0 y_0)))))
(assert (forall ((y_0 Nat_0))
	(mult_0 Z_0 Z_0 y_0)))
(assert (forall ((x_178 Nat_0) (y_0 Nat_0) (r_0 Nat_0) (z_1 Nat_0))
	(=>	(and (mult_0 r_0 x_178 y_0)
			(add_0 z_1 r_0 y_0))
		(mult_0 z_1 (S_0 x_178) y_0))))
(assert (forall ((x_178 Nat_0) (y_0 Nat_0))
	(=> (lt_0 x_178 y_0)
	    (div_0 Z_0 x_178 y_0))))
(assert (forall ((x_178 Nat_0) (y_0 Nat_0) (r_0 Nat_0) (z_1 Nat_0))
	(=>	(and (ge_0 x_178 y_0)
			(minus_0 z_1 x_178 y_0)
			(div_0 r_0 z_1 y_0))
		(div_0 (S_0 r_0) x_178 y_0))))
(assert (forall ((x_178 Nat_0) (y_0 Nat_0))
	(=> (lt_0 x_178 y_0)
	    (mod_0 x_178 x_178 y_0))))
(assert (forall ((x_178 Nat_0) (y_0 Nat_0) (r_0 Nat_0) (z_1 Nat_0))
	(=>	(and (ge_0 x_178 y_0)
			(minus_0 z_1 x_178 y_0)
			(mod_0 r_0 z_1 y_0))
		(mod_0 r_0 x_178 y_0))))
(declare-fun and_0 (Bool Bool Bool) Bool)
(declare-fun or_0 (Bool Bool Bool) Bool)
(declare-fun hence_0 (Bool Bool Bool) Bool)
(declare-fun not_0 (Bool Bool) Bool)
(assert (and_0 false false false))
(assert (and_0 false true false))
(assert (and_0 false false true))
(assert (and_0 true true true))
(assert (or_0 false false false))
(assert (or_0 true true false))
(assert (or_0 true false true))
(assert (or_0 true true true))
(assert (hence_0 true false false))
(assert (hence_0 false true false))
(assert (hence_0 true false true))
(assert (hence_0 true true true))
(assert (not_0 true false))
(assert (not_0 false true))
(declare-datatypes ((Tree_0 0)) (((Tree_1 (Tree_2 Tree_0) (Tree_3 Nat_0) (Tree_4 Tree_0)) (Tree_5 ))))
(declare-fun diseqTree_0 (Tree_0 Tree_0) Bool)
(declare-fun Tree_6 (Tree_0 Tree_0) Bool)
(declare-fun Tree_7 (Nat_0 Tree_0) Bool)
(declare-fun Tree_8 (Tree_0 Tree_0) Bool)
(declare-fun isTree_0 (Tree_0) Bool)
(declare-fun isTree_1 (Tree_0) Bool)
(assert (forall ((x_200 Tree_0) (x_197 Tree_0) (x_198 Nat_0) (x_199 Tree_0))
	(=> (= x_200 (Tree_1 x_197 x_198 x_199))
	    (Tree_6 x_197 x_200))))
(assert (forall ((x_200 Tree_0) (x_197 Tree_0) (x_198 Nat_0) (x_199 Tree_0))
	(=> (= x_200 (Tree_1 x_197 x_198 x_199))
	    (Tree_7 x_198 x_200))))
(assert (forall ((x_200 Tree_0) (x_197 Tree_0) (x_198 Nat_0) (x_199 Tree_0))
	(=> (= x_200 (Tree_1 x_197 x_198 x_199))
	    (Tree_8 x_199 x_200))))
(assert (forall ((x_202 Tree_0) (x_203 Nat_0) (x_204 Tree_0))
	(isTree_0 (Tree_1 x_202 x_203 x_204))))
(assert (isTree_1 Tree_5))
(assert (forall ((x_205 Tree_0) (x_206 Nat_0) (x_207 Tree_0))
	(diseqTree_0 (Tree_1 x_205 x_206 x_207) Tree_5)))
(assert (forall ((x_208 Tree_0) (x_209 Nat_0) (x_210 Tree_0))
	(diseqTree_0 Tree_5 (Tree_1 x_208 x_209 x_210))))
(assert (forall ((x_211 Tree_0) (x_212 Nat_0) (x_213 Tree_0) (x_214 Tree_0) (x_215 Nat_0) (x_216 Tree_0))
	(=> (diseqTree_0 x_211 x_214)
	    (diseqTree_0 (Tree_1 x_211 x_212 x_213) (Tree_1 x_214 x_215 x_216)))))
(assert (forall ((x_211 Tree_0) (x_212 Nat_0) (x_213 Tree_0) (x_214 Tree_0) (x_215 Nat_0) (x_216 Tree_0))
	(=> (diseqNat_0 x_212 x_215)
	    (diseqTree_0 (Tree_1 x_211 x_212 x_213) (Tree_1 x_214 x_215 x_216)))))
(assert (forall ((x_211 Tree_0) (x_212 Nat_0) (x_213 Tree_0) (x_214 Tree_0) (x_215 Nat_0) (x_216 Tree_0))
	(=> (diseqTree_0 x_213 x_216)
	    (diseqTree_0 (Tree_1 x_211 x_212 x_213) (Tree_1 x_214 x_215 x_216)))))
(declare-datatypes ((MutInt_0 0)) (((mutInt_1 (curInt_0 Nat_0) (retInt_0 Nat_0)))))
(declare-fun diseqMutInt_0 (MutInt_0 MutInt_0) Bool)
(declare-fun curInt_1 (Nat_0 MutInt_0) Bool)
(declare-fun retInt_1 (Nat_0 MutInt_0) Bool)
(declare-fun ismutInt_0 (MutInt_0) Bool)
(assert (forall ((x_219 MutInt_0) (x_217 Nat_0) (x_218 Nat_0))
	(=> (= x_219 (mutInt_1 x_217 x_218))
	    (curInt_1 x_217 x_219))))
(assert (forall ((x_219 MutInt_0) (x_217 Nat_0) (x_218 Nat_0))
	(=> (= x_219 (mutInt_1 x_217 x_218))
	    (retInt_1 x_218 x_219))))
(assert (forall ((x_220 Nat_0) (x_221 Nat_0))
	(ismutInt_0 (mutInt_1 x_220 x_221))))
(assert (forall ((x_222 Nat_0) (x_223 Nat_0) (x_224 Nat_0) (x_225 Nat_0))
	(=> (diseqNat_0 x_222 x_224)
	    (diseqMutInt_0 (mutInt_1 x_222 x_223) (mutInt_1 x_224 x_225)))))
(assert (forall ((x_222 Nat_0) (x_223 Nat_0) (x_224 Nat_0) (x_225 Nat_0))
	(=> (diseqNat_0 x_223 x_225)
	    (diseqMutInt_0 (mutInt_1 x_222 x_223) (mutInt_1 x_224 x_225)))))
(declare-datatypes ((MutTree_0 0)) (((mutTree_1 (curTree_0 Tree_0) (retTree_0 Tree_0)))))
(declare-fun diseqMutTree_0 (MutTree_0 MutTree_0) Bool)
(declare-fun curTree_1 (Tree_0 MutTree_0) Bool)
(declare-fun retTree_1 (Tree_0 MutTree_0) Bool)
(declare-fun ismutTree_0 (MutTree_0) Bool)
(assert (forall ((x_228 MutTree_0) (x_226 Tree_0) (x_227 Tree_0))
	(=> (= x_228 (mutTree_1 x_226 x_227))
	    (curTree_1 x_226 x_228))))
(assert (forall ((x_228 MutTree_0) (x_226 Tree_0) (x_227 Tree_0))
	(=> (= x_228 (mutTree_1 x_226 x_227))
	    (retTree_1 x_227 x_228))))
(assert (forall ((x_229 Tree_0) (x_230 Tree_0))
	(ismutTree_0 (mutTree_1 x_229 x_230))))
(assert (forall ((x_231 Tree_0) (x_232 Tree_0) (x_233 Tree_0) (x_234 Tree_0))
	(=> (diseqTree_0 x_231 x_233)
	    (diseqMutTree_0 (mutTree_1 x_231 x_232) (mutTree_1 x_233 x_234)))))
(assert (forall ((x_231 Tree_0) (x_232 Tree_0) (x_233 Tree_0) (x_234 Tree_0))
	(=> (diseqTree_0 x_232 x_234)
	    (diseqMutTree_0 (mutTree_1 x_231 x_232) (mutTree_1 x_233 x_234)))))
(declare-datatypes ((TupMutIntMutTree_0 0)) (((tupMutIntMutTree_1 (atMutIntMutTree_0 MutInt_0) (atMutIntMutTree_1 MutTree_0)))))
(declare-fun diseqTupMutIntMutTree_0 (TupMutIntMutTree_0 TupMutIntMutTree_0) Bool)
(declare-fun atMutIntMutTree_2 (MutInt_0 TupMutIntMutTree_0) Bool)
(declare-fun atMutIntMutTree_3 (MutTree_0 TupMutIntMutTree_0) Bool)
(declare-fun istupMutIntMutTree_0 (TupMutIntMutTree_0) Bool)
(assert (forall ((x_237 TupMutIntMutTree_0) (x_235 MutInt_0) (x_236 MutTree_0))
	(=> (= x_237 (tupMutIntMutTree_1 x_235 x_236))
	    (atMutIntMutTree_2 x_235 x_237))))
(assert (forall ((x_237 TupMutIntMutTree_0) (x_235 MutInt_0) (x_236 MutTree_0))
	(=> (= x_237 (tupMutIntMutTree_1 x_235 x_236))
	    (atMutIntMutTree_3 x_236 x_237))))
(assert (forall ((x_238 MutInt_0) (x_239 MutTree_0))
	(istupMutIntMutTree_0 (tupMutIntMutTree_1 x_238 x_239))))
(assert (forall ((x_240 MutInt_0) (x_241 MutTree_0) (x_242 MutInt_0) (x_243 MutTree_0))
	(=> (diseqMutInt_0 x_240 x_242)
	    (diseqTupMutIntMutTree_0 (tupMutIntMutTree_1 x_240 x_241) (tupMutIntMutTree_1 x_242 x_243)))))
(assert (forall ((x_240 MutInt_0) (x_241 MutTree_0) (x_242 MutInt_0) (x_243 MutTree_0))
	(=> (diseqMutTree_0 x_241 x_243)
	    (diseqTupMutIntMutTree_0 (tupMutIntMutTree_1 x_240 x_241) (tupMutIntMutTree_1 x_242 x_243)))))
(declare-fun main_0 (Bool) Bool)
(declare-fun mainabs_0 (Tree_0 Bool Bool Nat_0) Bool)
(declare-fun sum_0 (Tree_0 Nat_0) Bool)
(declare-fun someabs_0 (MutTree_0 TupMutIntMutTree_0 Nat_0 Nat_0) Bool)
(declare-fun someabs_1 (MutTree_0 TupMutIntMutTree_0 Nat_0 Nat_0) Bool)
(declare-fun someabs_2 (MutTree_0 MutTree_0 MutInt_0 MutTree_0 Bool TupMutIntMutTree_0 Nat_0 Nat_0 Nat_0 Nat_0 Nat_0 Nat_0) Bool)
(declare-fun someabs_3 (MutTree_0 MutTree_0 MutInt_0 MutTree_0 Bool Bool TupMutIntMutTree_0 Nat_0 Nat_0 Nat_0 Nat_0 Nat_0 Nat_0) Bool)
(declare-fun someabs_4 (MutTree_0 MutTree_0 MutInt_0 MutTree_0 Bool MutInt_0 Bool TupMutIntMutTree_0 Nat_0 Nat_0 Nat_0 Nat_0 Nat_0 Nat_0) Bool)
(declare-fun sum_1 (Tree_0 Nat_0) Bool)
(declare-fun sum_2 (Nat_0 Tree_0) Bool)
(assert (forall ((x_0 Tree_0) (x_88 Nat_0))
	(=>	(and (= x_88 Z_0)
			(= x_0 Tree_5))
		(sum_2 x_88 x_0))))
(assert (forall ((x_0 Tree_0) (x_89 Nat_0) (x_90 Nat_0) (x_91 Nat_0) (x_179 Nat_0) (x_180 Nat_0) (x_244 Tree_0) (x_245 Tree_0) (x_246 Nat_0))
	(=>	(and (= x_89 x_180)
			(sum_2 x_90 x_244)
			(sum_2 x_91 x_245)
			(diseqTree_0 x_0 Tree_5)
			(add_0 x_179 x_246 x_90)
			(add_0 x_180 x_179 x_91)
			(Tree_6 x_244 x_0)
			(Tree_8 x_245 x_0)
			(Tree_7 x_246 x_0))
		(sum_2 x_89 x_0))))
(assert (forall ((x_1 Bool) (x_2 Nat_0) (x_3 TupMutIntMutTree_0) (x_4 TupMutIntMutTree_0) (x_5 Nat_0) (x_6 Tree_0) (x_7 Tree_0) (x_8 Tree_0) (x_9 Tree_0) (c_0 Nat_0) (c_1 Nat_0) (c_2 Nat_0) (c_3 Nat_0) (c_4 Nat_0) (x_92 Nat_0) (x_93 Nat_0) (x_94 Nat_0) (x_95 Nat_0) (x_96 Nat_0) (x_97 Nat_0) (x_98 Nat_0) (x_176 Bool) (x_181 Nat_0) (x_182 Nat_0) (x_183 Nat_0) (x_247 MutTree_0) (x_248 Tree_0) (x_249 MutTree_0) (x_250 Tree_0) (x_251 MutTree_0) (x_252 Tree_0) (x_253 MutTree_0) (x_254 Tree_0) (x_255 MutInt_0) (x_256 Nat_0) (x_257 MutTree_0) (x_258 Tree_0) (x_259 MutInt_0) (x_260 Nat_0) (x_261 MutTree_0) (x_262 Tree_0) (x_263 MutInt_0) (x_264 Nat_0) (x_265 MutInt_0) (x_266 Nat_0))
	(=>	(and (= x_92 c_0)
			(sum_0 x_6 c_0)
			(= x_93 c_1)
			(sum_0 x_8 c_1)
			(= x_94 c_2)
			(sum_0 x_248 c_2)
			(= x_95 c_3)
			(sum_0 x_9 c_3)
			(= x_96 c_4)
			(sum_0 x_7 c_4)
			(sum_0 x_6 x_2)
			(someabs_0 (mutTree_1 x_6 x_8) x_3 c_0 c_1)
			(someabs_0 (mutTree_1 x_250 x_9) x_4 c_2 c_3)
			(sum_0 x_7 x_5)
			(mainabs_0 x_7 x_176 x_1 c_4)
			(= x_5 x_181)
			(= x_97 x_2)
			(= x_98 x_5)
			(= x_7 x_8)
			(= x_252 x_254)
			(= x_256 x_182)
			(= x_258 x_9)
			(= x_260 x_183)
			(sum_2 x_92 x_6)
			(sum_2 x_93 x_8)
			(sum_2 x_94 x_262)
			(sum_2 x_95 x_9)
			(sum_2 x_96 x_7)
			(sum_2 x_97 x_6)
			(sum_2 x_98 x_7)
			(not_0 x_176 true)
			(add_0 x_181 x_2 (S_0 (S_0 Z_0)))
			(add_0 x_182 x_264 (S_0 Z_0))
			(add_0 x_183 x_266 (S_0 Z_0))
			(atMutIntMutTree_3 x_247 x_3)
			(curTree_1 x_248 x_247)
			(atMutIntMutTree_3 x_249 x_3)
			(curTree_1 x_250 x_249)
			(atMutIntMutTree_3 x_251 x_4)
			(retTree_1 x_252 x_251)
			(atMutIntMutTree_3 x_253 x_4)
			(curTree_1 x_254 x_253)
			(atMutIntMutTree_2 x_255 x_3)
			(retInt_1 x_256 x_255)
			(atMutIntMutTree_3 x_257 x_3)
			(retTree_1 x_258 x_257)
			(atMutIntMutTree_2 x_259 x_4)
			(retInt_1 x_260 x_259)
			(atMutIntMutTree_3 x_261 x_3)
			(curTree_1 x_262 x_261)
			(atMutIntMutTree_2 x_263 x_3)
			(curInt_1 x_264 x_263)
			(atMutIntMutTree_2 x_265 x_4)
			(curInt_1 x_266 x_265))
		(main_0 x_1))))
(assert (forall ((x_1 Bool) (x_2 Nat_0) (x_3 TupMutIntMutTree_0) (x_4 TupMutIntMutTree_0) (x_5 Nat_0) (x_6 Tree_0) (x_7 Tree_0) (x_8 Tree_0) (x_9 Tree_0) (c_0 Nat_0) (c_1 Nat_0) (c_2 Nat_0) (c_3 Nat_0) (c_4 Nat_0) (x_99 Nat_0) (x_100 Nat_0) (x_101 Nat_0) (x_102 Nat_0) (x_103 Nat_0) (x_104 Nat_0) (x_105 Nat_0) (x_177 Bool) (x_184 Nat_0) (x_185 Nat_0) (x_186 Nat_0) (x_267 MutTree_0) (x_268 Tree_0) (x_269 MutTree_0) (x_270 Tree_0) (x_271 MutTree_0) (x_272 Tree_0) (x_273 MutTree_0) (x_274 Tree_0) (x_275 MutInt_0) (x_276 Nat_0) (x_277 MutTree_0) (x_278 Tree_0) (x_279 MutInt_0) (x_280 Nat_0) (x_281 MutTree_0) (x_282 Tree_0) (x_283 MutInt_0) (x_284 Nat_0) (x_285 MutInt_0) (x_286 Nat_0))
	(=>	(and (= x_99 c_0)
			(sum_0 x_6 c_0)
			(= x_100 c_1)
			(sum_0 x_8 c_1)
			(= x_101 c_2)
			(sum_0 x_268 c_2)
			(= x_102 c_3)
			(sum_0 x_9 c_3)
			(= x_103 c_4)
			(sum_0 x_7 c_4)
			(sum_0 x_6 x_2)
			(someabs_0 (mutTree_1 x_6 x_8) x_3 c_0 c_1)
			(someabs_0 (mutTree_1 x_270 x_9) x_4 c_2 c_3)
			(sum_0 x_7 x_5)
			(mainabs_0 x_7 x_177 x_1 c_4)
			(diseqNat_0 x_5 x_184)
			(= x_104 x_2)
			(= x_105 x_5)
			(= x_7 x_8)
			(= x_272 x_274)
			(= x_276 x_185)
			(= x_278 x_9)
			(= x_280 x_186)
			(sum_2 x_99 x_6)
			(sum_2 x_100 x_8)
			(sum_2 x_101 x_282)
			(sum_2 x_102 x_9)
			(sum_2 x_103 x_7)
			(sum_2 x_104 x_6)
			(sum_2 x_105 x_7)
			(not_0 x_177 false)
			(add_0 x_184 x_2 (S_0 (S_0 Z_0)))
			(add_0 x_185 x_284 (S_0 Z_0))
			(add_0 x_186 x_286 (S_0 Z_0))
			(atMutIntMutTree_3 x_267 x_3)
			(curTree_1 x_268 x_267)
			(atMutIntMutTree_3 x_269 x_3)
			(curTree_1 x_270 x_269)
			(atMutIntMutTree_3 x_271 x_4)
			(retTree_1 x_272 x_271)
			(atMutIntMutTree_3 x_273 x_4)
			(curTree_1 x_274 x_273)
			(atMutIntMutTree_2 x_275 x_3)
			(retInt_1 x_276 x_275)
			(atMutIntMutTree_3 x_277 x_3)
			(retTree_1 x_278 x_277)
			(atMutIntMutTree_2 x_279 x_4)
			(retInt_1 x_280 x_279)
			(atMutIntMutTree_3 x_281 x_3)
			(curTree_1 x_282 x_281)
			(atMutIntMutTree_2 x_283 x_3)
			(curInt_1 x_284 x_283)
			(atMutIntMutTree_2 x_285 x_4)
			(curInt_1 x_286 x_285))
		(main_0 x_1))))
(assert (forall ((x_10 Bool) (x_11 Tree_0) (c_5 Nat_0) (x_106 Nat_0))
	(=>	(and (= x_106 c_5)
			(sum_0 x_11 c_5)
			(= x_10 false)
			(sum_2 x_106 x_11))
		(mainabs_0 x_11 false x_10 c_5))))
(assert (forall ((x_12 Bool) (x_13 Tree_0) (c_6 Nat_0) (x_107 Nat_0))
	(=>	(and (= x_107 c_6)
			(sum_0 x_13 c_6)
			(= x_12 true)
			(sum_2 x_107 x_13))
		(mainabs_0 x_13 true x_12 c_6))))
(assert (forall ((x_14 TupMutIntMutTree_0) (x_15 MutTree_0) (c_7 Nat_0) (c_8 Nat_0) (c_9 Nat_0) (c_10 Nat_0) (x_108 Nat_0) (x_109 Nat_0) (x_110 Nat_0) (x_111 Nat_0) (x_287 Tree_0) (x_288 Tree_0) (x_289 Tree_0) (x_290 Tree_0) (x_291 Tree_0) (x_292 Tree_0) (x_293 Tree_0) (x_294 Tree_0))
	(=>	(and (= x_108 c_7)
			(sum_0 x_287 c_7)
			(= x_109 c_8)
			(sum_0 x_288 c_8)
			(= x_110 c_9)
			(sum_0 x_289 c_9)
			(= x_111 c_10)
			(sum_0 x_290 c_10)
			(someabs_1 x_15 x_14 c_9 c_10)
			(sum_2 x_108 x_291)
			(sum_2 x_109 x_292)
			(sum_2 x_110 x_293)
			(sum_2 x_111 x_294)
			(curTree_1 x_287 x_15)
			(retTree_1 x_288 x_15)
			(curTree_1 x_289 x_15)
			(retTree_1 x_290 x_15)
			(curTree_1 x_291 x_15)
			(retTree_1 x_292 x_15)
			(curTree_1 x_293 x_15)
			(retTree_1 x_294 x_15))
		(someabs_0 x_15 x_14 c_7 c_8))))
(assert (forall ((x_16 Tree_0) (x_17 Nat_0) (x_18 Tree_0) (x_19 Tree_0) (x_20 Nat_0) (x_21 Tree_0) (x_22 Bool) (x_23 TupMutIntMutTree_0) (x_24 MutTree_0) (c_11 Nat_0) (c_12 Nat_0) (c_13 Nat_0) (c_14 Nat_0) (c_15 Nat_0) (c_16 Nat_0) (c_17 Nat_0) (c_18 Nat_0) (x_112 Nat_0) (x_113 Nat_0) (x_114 Nat_0) (x_115 Nat_0) (x_116 Nat_0) (x_117 Nat_0) (x_118 Nat_0) (x_119 Nat_0) (x_300 Tree_0) (x_295 Tree_0) (x_296 Tree_0) (x_297 Tree_0) (x_298 Tree_0) (x_299 Tree_0))
	(=>	(and (retTree_1 x_300 x_24)
			(= x_112 c_11)
			(sum_0 (Tree_1 x_18 x_17 x_16) c_11)
			(= x_113 c_12)
			(sum_0 x_295 c_12)
			(= x_114 c_13)
			(sum_0 (Tree_1 x_21 x_20 x_19) c_13)
			(= x_115 c_14)
			(sum_0 x_296 c_14)
			(= x_116 c_15)
			(sum_0 x_18 c_15)
			(= x_117 c_16)
			(sum_0 x_21 c_16)
			(= x_118 c_17)
			(sum_0 x_16 c_17)
			(= x_119 c_18)
			(sum_0 x_19 c_18)
			(someabs_2 (mutTree_1 (Tree_1 x_21 x_20 x_19) x_297) (mutTree_1 x_18 x_21) (mutInt_1 x_17 x_20) (mutTree_1 x_16 x_19) x_22 x_23 c_13 c_14 c_15 c_16 c_17 c_18)
			(sum_2 x_112 (Tree_1 x_18 x_17 x_16))
			(sum_2 x_113 x_298)
			(sum_2 x_114 (Tree_1 x_21 x_20 x_19))
			(sum_2 x_115 x_299)
			(sum_2 x_116 x_18)
			(sum_2 x_117 x_21)
			(sum_2 x_118 x_16)
			(sum_2 x_119 x_19)
			(retTree_1 x_295 x_24)
			(retTree_1 x_296 x_24)
			(retTree_1 x_297 x_24)
			(retTree_1 x_298 x_24)
			(retTree_1 x_299 x_24))
		(someabs_1 (mutTree_1 (Tree_1 x_18 x_17 x_16) x_300) x_23 c_11 c_12))))
(assert (forall ((x_25 Tree_0) (x_26 TupMutIntMutTree_0) (x_27 TupMutIntMutTree_0) (x_28 MutTree_0) (c_19 Nat_0) (c_20 Nat_0) (c_21 Nat_0) (c_22 Nat_0) (x_120 Nat_0) (x_121 Nat_0) (x_122 Nat_0) (x_123 Nat_0) (x_304 Tree_0) (x_301 Tree_0) (x_302 Tree_0) (x_303 Tree_0))
	(=>	(and (retTree_1 x_304 x_28)
			(= x_120 c_19)
			(sum_0 Tree_5 c_19)
			(= x_121 c_20)
			(sum_0 x_301 c_20)
			(= x_122 c_21)
			(sum_0 Tree_5 c_21)
			(= x_123 c_22)
			(sum_0 x_25 c_22)
			(someabs_0 (mutTree_1 Tree_5 x_25) x_26 c_21 c_22)
			(= x_302 x_25)
			(= x_27 x_26)
			(sum_2 x_120 Tree_5)
			(sum_2 x_121 x_303)
			(sum_2 x_122 Tree_5)
			(sum_2 x_123 x_25)
			(retTree_1 x_301 x_28)
			(retTree_1 x_302 x_28)
			(retTree_1 x_303 x_28))
		(someabs_1 (mutTree_1 Tree_5 x_304) x_27 c_19 c_20))))
(assert (forall ((x_29 Bool) (x_30 TupMutIntMutTree_0) (x_31 MutTree_0) (x_32 MutInt_0) (x_33 MutTree_0) (x_34 MutTree_0) (c_23 Nat_0) (c_24 Nat_0) (c_25 Nat_0) (c_26 Nat_0) (c_27 Nat_0) (c_28 Nat_0) (c_29 Nat_0) (c_30 Nat_0) (c_31 Nat_0) (c_32 Nat_0) (c_33 Nat_0) (c_34 Nat_0) (x_124 Nat_0) (x_125 Nat_0) (x_126 Nat_0) (x_127 Nat_0) (x_128 Nat_0) (x_129 Nat_0) (x_130 Nat_0) (x_131 Nat_0) (x_132 Nat_0) (x_133 Nat_0) (x_134 Nat_0) (x_135 Nat_0) (x_305 Tree_0) (x_306 Tree_0) (x_307 Tree_0) (x_308 Tree_0) (x_309 Tree_0) (x_310 Tree_0) (x_311 Tree_0) (x_312 Tree_0) (x_313 Tree_0) (x_314 Tree_0) (x_315 Tree_0) (x_316 Tree_0) (x_317 Tree_0) (x_318 Tree_0) (x_319 Tree_0) (x_320 Tree_0) (x_321 Tree_0) (x_322 Tree_0) (x_323 Tree_0) (x_324 Tree_0) (x_325 Tree_0) (x_326 Tree_0) (x_327 Tree_0) (x_328 Tree_0))
	(=>	(and (= x_124 c_23)
			(sum_0 x_305 c_23)
			(= x_125 c_24)
			(sum_0 x_306 c_24)
			(= x_126 c_25)
			(sum_0 x_307 c_25)
			(= x_127 c_26)
			(sum_0 x_308 c_26)
			(= x_128 c_27)
			(sum_0 x_309 c_27)
			(= x_129 c_28)
			(sum_0 x_310 c_28)
			(= x_130 c_29)
			(sum_0 x_311 c_29)
			(= x_131 c_30)
			(sum_0 x_312 c_30)
			(= x_132 c_31)
			(sum_0 x_313 c_31)
			(= x_133 c_32)
			(sum_0 x_314 c_32)
			(= x_134 c_33)
			(sum_0 x_315 c_33)
			(= x_135 c_34)
			(sum_0 x_316 c_34)
			(someabs_3 x_34 x_33 x_32 x_31 false x_29 x_30 c_29 c_30 c_31 c_32 c_33 c_34)
			(sum_2 x_124 x_317)
			(sum_2 x_125 x_318)
			(sum_2 x_126 x_319)
			(sum_2 x_127 x_320)
			(sum_2 x_128 x_321)
			(sum_2 x_129 x_322)
			(sum_2 x_130 x_323)
			(sum_2 x_131 x_324)
			(sum_2 x_132 x_325)
			(sum_2 x_133 x_326)
			(sum_2 x_134 x_327)
			(sum_2 x_135 x_328)
			(curTree_1 x_305 x_34)
			(retTree_1 x_306 x_34)
			(curTree_1 x_307 x_33)
			(retTree_1 x_308 x_33)
			(curTree_1 x_309 x_31)
			(retTree_1 x_310 x_31)
			(curTree_1 x_311 x_34)
			(retTree_1 x_312 x_34)
			(curTree_1 x_313 x_33)
			(retTree_1 x_314 x_33)
			(curTree_1 x_315 x_31)
			(retTree_1 x_316 x_31)
			(curTree_1 x_317 x_34)
			(retTree_1 x_318 x_34)
			(curTree_1 x_319 x_33)
			(retTree_1 x_320 x_33)
			(curTree_1 x_321 x_31)
			(retTree_1 x_322 x_31)
			(curTree_1 x_323 x_34)
			(retTree_1 x_324 x_34)
			(curTree_1 x_325 x_33)
			(retTree_1 x_326 x_33)
			(curTree_1 x_327 x_31)
			(retTree_1 x_328 x_31))
		(someabs_2 x_34 x_33 x_32 x_31 false x_30 c_23 c_24 c_25 c_26 c_27 c_28))))
(assert (forall ((x_35 Nat_0) (x_36 Bool) (x_37 TupMutIntMutTree_0) (x_38 MutTree_0) (x_39 MutInt_0) (x_40 MutTree_0) (x_41 MutTree_0) (c_35 Nat_0) (c_36 Nat_0) (c_37 Nat_0) (c_38 Nat_0) (c_39 Nat_0) (c_40 Nat_0) (c_41 Nat_0) (c_42 Nat_0) (c_43 Nat_0) (c_44 Nat_0) (c_45 Nat_0) (c_46 Nat_0) (x_136 Nat_0) (x_137 Nat_0) (x_138 Nat_0) (x_139 Nat_0) (x_140 Nat_0) (x_141 Nat_0) (x_142 Nat_0) (x_143 Nat_0) (x_144 Nat_0) (x_145 Nat_0) (x_146 Nat_0) (x_147 Nat_0) (x_329 Tree_0) (x_330 Tree_0) (x_331 Tree_0) (x_332 Tree_0) (x_333 Tree_0) (x_334 Tree_0) (x_335 Tree_0) (x_336 Tree_0) (x_337 Tree_0) (x_338 Tree_0) (x_339 Tree_0) (x_340 Tree_0) (x_341 Nat_0) (x_342 Nat_0) (x_343 Tree_0) (x_344 Tree_0) (x_345 Tree_0) (x_346 Tree_0) (x_347 Tree_0) (x_348 Tree_0) (x_349 Tree_0) (x_350 Tree_0) (x_351 Tree_0) (x_352 Tree_0) (x_353 Tree_0) (x_354 Tree_0))
	(=>	(and (= x_136 c_35)
			(sum_0 x_329 c_35)
			(= x_137 c_36)
			(sum_0 x_330 c_36)
			(= x_138 c_37)
			(sum_0 x_331 c_37)
			(= x_139 c_38)
			(sum_0 x_332 c_38)
			(= x_140 c_39)
			(sum_0 x_333 c_39)
			(= x_141 c_40)
			(sum_0 x_334 c_40)
			(= x_142 c_41)
			(sum_0 x_335 c_41)
			(= x_143 c_42)
			(sum_0 x_336 c_42)
			(= x_144 c_43)
			(sum_0 x_337 c_43)
			(= x_145 c_44)
			(sum_0 x_338 c_44)
			(= x_146 c_45)
			(sum_0 x_339 c_45)
			(= x_147 c_46)
			(sum_0 x_340 c_46)
			(someabs_4 x_41 x_40 (mutInt_1 x_35 x_341) x_38 true (mutInt_1 x_342 x_35) x_36 x_37 c_41 c_42 c_43 c_44 c_45 c_46)
			(sum_2 x_136 x_343)
			(sum_2 x_137 x_344)
			(sum_2 x_138 x_345)
			(sum_2 x_139 x_346)
			(sum_2 x_140 x_347)
			(sum_2 x_141 x_348)
			(sum_2 x_142 x_349)
			(sum_2 x_143 x_350)
			(sum_2 x_144 x_351)
			(sum_2 x_145 x_352)
			(sum_2 x_146 x_353)
			(sum_2 x_147 x_354)
			(curTree_1 x_329 x_41)
			(retTree_1 x_330 x_41)
			(curTree_1 x_331 x_40)
			(retTree_1 x_332 x_40)
			(curTree_1 x_333 x_38)
			(retTree_1 x_334 x_38)
			(curTree_1 x_335 x_41)
			(retTree_1 x_336 x_41)
			(curTree_1 x_337 x_40)
			(retTree_1 x_338 x_40)
			(curTree_1 x_339 x_38)
			(retTree_1 x_340 x_38)
			(retInt_1 x_341 x_39)
			(curInt_1 x_342 x_39)
			(curTree_1 x_343 x_41)
			(retTree_1 x_344 x_41)
			(curTree_1 x_345 x_40)
			(retTree_1 x_346 x_40)
			(curTree_1 x_347 x_38)
			(retTree_1 x_348 x_38)
			(curTree_1 x_349 x_41)
			(retTree_1 x_350 x_41)
			(curTree_1 x_351 x_40)
			(retTree_1 x_352 x_40)
			(curTree_1 x_353 x_38)
			(retTree_1 x_354 x_38))
		(someabs_2 x_41 x_40 x_39 x_38 true x_37 c_35 c_36 c_37 c_38 c_39 c_40))))
(assert (forall ((x_42 Tree_0) (x_43 Tree_0) (x_44 Tree_0) (x_45 TupMutIntMutTree_0) (x_46 MutInt_0) (x_47 Bool) (x_48 MutTree_0) (x_49 MutInt_0) (x_50 MutTree_0) (x_51 MutTree_0) (c_47 Nat_0) (c_48 Nat_0) (c_49 Nat_0) (c_50 Nat_0) (c_51 Nat_0) (c_52 Nat_0) (x_148 Nat_0) (x_149 Nat_0) (x_150 Nat_0) (x_151 Nat_0) (x_152 Nat_0) (x_153 Nat_0) (x_355 Tree_0) (x_356 Tree_0) (x_357 Tree_0) (x_358 Tree_0) (x_359 Tree_0) (x_360 Tree_0) (x_361 Tree_0) (x_362 Nat_0) (x_363 Nat_0) (x_364 Tree_0) (x_365 Tree_0) (x_366 Tree_0) (x_367 Tree_0) (x_368 Tree_0) (x_369 Tree_0) (x_370 Tree_0) (x_371 Tree_0) (x_372 Tree_0) (x_373 Tree_0) (x_374 Tree_0))
	(=>	(and (= x_148 c_47)
			(sum_0 x_355 c_47)
			(= x_149 c_48)
			(sum_0 x_356 c_48)
			(= x_150 c_49)
			(sum_0 x_357 c_49)
			(= x_151 c_50)
			(sum_0 x_358 c_50)
			(= x_152 c_51)
			(sum_0 x_359 c_51)
			(= x_153 c_52)
			(sum_0 x_360 c_52)
			(= x_44 x_43)
			(= x_43 x_42)
			(= x_361 x_44)
			(= x_362 x_363)
			(= x_364 x_365)
			(= x_366 x_367)
			(= x_45 (tupMutIntMutTree_1 x_46 (mutTree_1 x_368 x_42)))
			(sum_2 x_148 x_369)
			(sum_2 x_149 x_370)
			(sum_2 x_150 x_371)
			(sum_2 x_151 x_372)
			(sum_2 x_152 x_373)
			(sum_2 x_153 x_374)
			(curTree_1 x_355 x_51)
			(retTree_1 x_356 x_51)
			(curTree_1 x_357 x_50)
			(retTree_1 x_358 x_50)
			(curTree_1 x_359 x_48)
			(retTree_1 x_360 x_48)
			(retTree_1 x_361 x_48)
			(retInt_1 x_362 x_49)
			(curInt_1 x_363 x_49)
			(retTree_1 x_364 x_50)
			(curTree_1 x_365 x_50)
			(retTree_1 x_366 x_51)
			(curTree_1 x_367 x_51)
			(curTree_1 x_368 x_48)
			(curTree_1 x_369 x_51)
			(retTree_1 x_370 x_51)
			(curTree_1 x_371 x_50)
			(retTree_1 x_372 x_50)
			(curTree_1 x_373 x_48)
			(retTree_1 x_374 x_48))
		(someabs_4 x_51 x_50 x_49 x_48 x_47 x_46 false x_45 c_47 c_48 c_49 c_50 c_51 c_52))))
(assert (forall ((x_52 Tree_0) (x_53 Tree_0) (x_54 Tree_0) (x_55 TupMutIntMutTree_0) (x_56 MutInt_0) (x_57 Bool) (x_58 MutTree_0) (x_59 MutInt_0) (x_60 MutTree_0) (x_61 MutTree_0) (c_53 Nat_0) (c_54 Nat_0) (c_55 Nat_0) (c_56 Nat_0) (c_57 Nat_0) (c_58 Nat_0) (x_154 Nat_0) (x_155 Nat_0) (x_156 Nat_0) (x_157 Nat_0) (x_158 Nat_0) (x_159 Nat_0) (x_375 Tree_0) (x_376 Tree_0) (x_377 Tree_0) (x_378 Tree_0) (x_379 Tree_0) (x_380 Tree_0) (x_381 Tree_0) (x_382 Tree_0) (x_383 Nat_0) (x_384 Nat_0) (x_385 Tree_0) (x_386 Tree_0) (x_387 Tree_0) (x_388 Tree_0) (x_389 Tree_0) (x_390 Tree_0) (x_391 Tree_0) (x_392 Tree_0) (x_393 Tree_0) (x_394 Tree_0))
	(=>	(and (= x_154 c_53)
			(sum_0 x_375 c_53)
			(= x_155 c_54)
			(sum_0 x_376 c_54)
			(= x_156 c_55)
			(sum_0 x_377 c_55)
			(= x_157 c_56)
			(sum_0 x_378 c_56)
			(= x_158 c_57)
			(sum_0 x_379 c_57)
			(= x_159 c_58)
			(sum_0 x_380 c_58)
			(= x_54 x_53)
			(= x_53 x_52)
			(= x_381 x_382)
			(= x_383 x_384)
			(= x_385 x_54)
			(= x_386 x_387)
			(= x_55 (tupMutIntMutTree_1 x_56 (mutTree_1 x_388 x_52)))
			(sum_2 x_154 x_389)
			(sum_2 x_155 x_390)
			(sum_2 x_156 x_391)
			(sum_2 x_157 x_392)
			(sum_2 x_158 x_393)
			(sum_2 x_159 x_394)
			(curTree_1 x_375 x_61)
			(retTree_1 x_376 x_61)
			(curTree_1 x_377 x_60)
			(retTree_1 x_378 x_60)
			(curTree_1 x_379 x_58)
			(retTree_1 x_380 x_58)
			(retTree_1 x_381 x_58)
			(curTree_1 x_382 x_58)
			(retInt_1 x_383 x_59)
			(curInt_1 x_384 x_59)
			(retTree_1 x_385 x_60)
			(retTree_1 x_386 x_61)
			(curTree_1 x_387 x_61)
			(curTree_1 x_388 x_60)
			(curTree_1 x_389 x_61)
			(retTree_1 x_390 x_61)
			(curTree_1 x_391 x_60)
			(retTree_1 x_392 x_60)
			(curTree_1 x_393 x_58)
			(retTree_1 x_394 x_58))
		(someabs_4 x_61 x_60 x_59 x_58 x_57 x_56 true x_55 c_53 c_54 c_55 c_56 c_57 c_58))))
(assert (forall ((x_62 Tree_0) (x_63 TupMutIntMutTree_0) (x_64 TupMutIntMutTree_0) (x_65 Bool) (x_66 MutTree_0) (x_67 MutInt_0) (x_68 MutTree_0) (x_69 MutTree_0) (c_59 Nat_0) (c_60 Nat_0) (c_61 Nat_0) (c_62 Nat_0) (c_63 Nat_0) (c_64 Nat_0) (c_65 Nat_0) (c_66 Nat_0) (x_160 Nat_0) (x_161 Nat_0) (x_162 Nat_0) (x_163 Nat_0) (x_164 Nat_0) (x_165 Nat_0) (x_166 Nat_0) (x_167 Nat_0) (x_395 Tree_0) (x_396 Tree_0) (x_397 Tree_0) (x_398 Tree_0) (x_399 Tree_0) (x_400 Tree_0) (x_401 Tree_0) (x_402 Tree_0) (x_403 Tree_0) (x_404 Nat_0) (x_405 Nat_0) (x_406 Tree_0) (x_407 Tree_0) (x_408 Tree_0) (x_409 Tree_0) (x_410 Tree_0) (x_411 Tree_0) (x_412 Tree_0) (x_413 Tree_0) (x_414 Tree_0) (x_415 Tree_0) (x_416 Tree_0))
	(=>	(and (= x_160 c_59)
			(sum_0 x_395 c_59)
			(= x_161 c_60)
			(sum_0 x_396 c_60)
			(= x_162 c_61)
			(sum_0 x_397 c_61)
			(= x_163 c_62)
			(sum_0 x_398 c_62)
			(= x_164 c_63)
			(sum_0 x_399 c_63)
			(= x_165 c_64)
			(sum_0 x_400 c_64)
			(= x_166 c_65)
			(sum_0 x_401 c_65)
			(= x_167 c_66)
			(sum_0 x_62 c_66)
			(someabs_0 (mutTree_1 x_402 x_62) x_63 c_65 c_66)
			(= x_403 x_62)
			(= x_404 x_405)
			(= x_406 x_407)
			(= x_408 x_409)
			(= x_64 x_63)
			(sum_2 x_160 x_410)
			(sum_2 x_161 x_411)
			(sum_2 x_162 x_412)
			(sum_2 x_163 x_413)
			(sum_2 x_164 x_414)
			(sum_2 x_165 x_415)
			(sum_2 x_166 x_416)
			(sum_2 x_167 x_62)
			(curTree_1 x_395 x_69)
			(retTree_1 x_396 x_69)
			(curTree_1 x_397 x_68)
			(retTree_1 x_398 x_68)
			(curTree_1 x_399 x_66)
			(retTree_1 x_400 x_66)
			(curTree_1 x_401 x_66)
			(curTree_1 x_402 x_66)
			(retTree_1 x_403 x_66)
			(retInt_1 x_404 x_67)
			(curInt_1 x_405 x_67)
			(retTree_1 x_406 x_68)
			(curTree_1 x_407 x_68)
			(retTree_1 x_408 x_69)
			(curTree_1 x_409 x_69)
			(curTree_1 x_410 x_69)
			(retTree_1 x_411 x_69)
			(curTree_1 x_412 x_68)
			(retTree_1 x_413 x_68)
			(curTree_1 x_414 x_66)
			(retTree_1 x_415 x_66)
			(curTree_1 x_416 x_66))
		(someabs_3 x_69 x_68 x_67 x_66 x_65 false x_64 c_59 c_60 c_61 c_62 c_63 c_64))))
(assert (forall ((x_70 Tree_0) (x_71 TupMutIntMutTree_0) (x_72 TupMutIntMutTree_0) (x_73 Bool) (x_74 MutTree_0) (x_75 MutInt_0) (x_76 MutTree_0) (x_77 MutTree_0) (c_67 Nat_0) (c_68 Nat_0) (c_69 Nat_0) (c_70 Nat_0) (c_71 Nat_0) (c_72 Nat_0) (c_73 Nat_0) (c_74 Nat_0) (x_168 Nat_0) (x_169 Nat_0) (x_170 Nat_0) (x_171 Nat_0) (x_172 Nat_0) (x_173 Nat_0) (x_174 Nat_0) (x_175 Nat_0) (x_417 Tree_0) (x_418 Tree_0) (x_419 Tree_0) (x_420 Tree_0) (x_421 Tree_0) (x_422 Tree_0) (x_423 Tree_0) (x_424 Tree_0) (x_425 Tree_0) (x_426 Tree_0) (x_427 Nat_0) (x_428 Nat_0) (x_429 Tree_0) (x_430 Tree_0) (x_431 Tree_0) (x_432 Tree_0) (x_433 Tree_0) (x_434 Tree_0) (x_435 Tree_0) (x_436 Tree_0) (x_437 Tree_0) (x_438 Tree_0))
	(=>	(and (= x_168 c_67)
			(sum_0 x_417 c_67)
			(= x_169 c_68)
			(sum_0 x_418 c_68)
			(= x_170 c_69)
			(sum_0 x_419 c_69)
			(= x_171 c_70)
			(sum_0 x_420 c_70)
			(= x_172 c_71)
			(sum_0 x_421 c_71)
			(= x_173 c_72)
			(sum_0 x_422 c_72)
			(= x_174 c_73)
			(sum_0 x_423 c_73)
			(= x_175 c_74)
			(sum_0 x_70 c_74)
			(someabs_0 (mutTree_1 x_424 x_70) x_71 c_73 c_74)
			(= x_425 x_426)
			(= x_427 x_428)
			(= x_429 x_70)
			(= x_430 x_431)
			(= x_72 x_71)
			(sum_2 x_168 x_432)
			(sum_2 x_169 x_433)
			(sum_2 x_170 x_434)
			(sum_2 x_171 x_435)
			(sum_2 x_172 x_436)
			(sum_2 x_173 x_437)
			(sum_2 x_174 x_438)
			(sum_2 x_175 x_70)
			(curTree_1 x_417 x_77)
			(retTree_1 x_418 x_77)
			(curTree_1 x_419 x_76)
			(retTree_1 x_420 x_76)
			(curTree_1 x_421 x_74)
			(retTree_1 x_422 x_74)
			(curTree_1 x_423 x_76)
			(curTree_1 x_424 x_76)
			(retTree_1 x_425 x_74)
			(curTree_1 x_426 x_74)
			(retInt_1 x_427 x_75)
			(curInt_1 x_428 x_75)
			(retTree_1 x_429 x_76)
			(retTree_1 x_430 x_77)
			(curTree_1 x_431 x_77)
			(curTree_1 x_432 x_77)
			(retTree_1 x_433 x_77)
			(curTree_1 x_434 x_76)
			(retTree_1 x_435 x_76)
			(curTree_1 x_436 x_74)
			(retTree_1 x_437 x_74)
			(curTree_1 x_438 x_76))
		(someabs_3 x_77 x_76 x_75 x_74 x_73 true x_72 c_67 c_68 c_69 c_70 c_71 c_72))))
(assert (forall ((x_78 Tree_0) (x_79 Nat_0))
	(=> (sum_1 x_78 x_79)
	    (sum_0 x_78 x_79))))
(assert (forall ((x_80 Nat_0) (x_81 Nat_0) (x_82 Nat_0) (x_83 Tree_0) (x_84 Nat_0) (x_85 Tree_0) (x_187 Nat_0) (x_188 Nat_0))
	(=>	(and (sum_0 x_83 x_81)
			(sum_0 x_85 x_82)
			(= x_80 x_188)
			(add_0 x_187 x_81 x_84)
			(add_0 x_188 x_187 x_82))
		(sum_1 (Tree_1 x_83 x_84 x_85) x_80))))
(assert (forall ((x_86 Nat_0))
	(=> (= x_86 Z_0)
	    (sum_1 Tree_5 x_86))))
(assert (forall ((x_87 Nat_0))
	(=> (main_0 true)
	    false)))
(check-sat)
